WARNING: for repeatability, setting FPU to use double precision
============================[ Problem Statistics ]=============================
|                                                                             |
|  Number of variables:          2353                                         |
|  Number of clauses:           52268                                         |
|  Parse time:                   0.01 s                                       |
|                                                                             |
c ============================[ Search Statistics ]==============================
c | Conflicts |          ORIGINAL         |          LEARNT          | Progress |
c |           |    Vars  Clauses Literals |    Limit  Clauses Lit/Cl |          |
c ===============================================================================
c Switched to VSIDS.
c Switched to LRB.
c Switched to VSIDS.
c Switched to LRB.
c Switched to VSIDS.
c Switched to LRB.
c Switched to VSIDS.
c Switched to LRB.
c Switched to VSIDS.
c Switched to LRB.
c Switched to VSIDS.
CAREFUL: the definition is falsified in conflict 4438139 at DL 502 (has happened 1 times)
c Switched to LRB.
c Switched to VSIDS.
c Switched to LRB.
c Switched to VSIDS.
c Switched to LRB.
c Switched to VSIDS.
c Switched to LRB.
c Switched to VSIDS.
c Switched to LRB.
c Switched to VSIDS.
c Switched to LRB.
c Switched to VSIDS.
c Switched to LRB.
c Switched to VSIDS.
c Switched to LRB.
c Switched to VSIDS.
c Switched to LRB.
c Switched to VSIDS.
c ===============================================================================
restarts                  : 67137
conflicts                 : 16756381       (4745 /sec)
decisions                 : 51400190       (0.00 % random) (14557 /sec)
propagations              : 4681788383     (1325882 /sec)
conflict literals         : 3918861455     (19.74 % deleted)

conflicts w/ DIP found    : 5578829        (33.29 % of conflicts)
conflicts w/ dangerous DIP: 3              (0.00 % of conflicts)
conflicts w/ DIP-learning : 180726         (1.08 % of conflicts)
decisions on ext vars     : 3288885        (6.40 % of decisions)
total ext vars            : 5075        
tried delete ext vars     : 0           
deleted ext vars          : 0           
max ext vars              : 5075        

Memory used               : 471.00 MB
CPU time                  : 3531.08 s
DIP computation time      : 98.2426 s (2.78 % of total time)
ER_sel time               : 27.843 s
ER_add time               : 0.024171 s
ER_delC time              : 0 s
ER_delV time              : 0 s
ER_sub time               : 31.2988 s
ER_stat time              : 0 s

INDETERMINATE
